Version identifier: 22.1.1.0 | 2022-11-28 | 9160aff4d
CPXPARAM_ClockType                               1
CPXPARAM_Read_DataCheck                          1
CPXPARAM_Threads                                 1
CPXPARAM_TimeLimit                               7200
CPXPARAM_MIP_Tolerances_AbsMIPGap                0
CPXPARAM_MIP_Tolerances_MIPGap                   0
CPXPARAM_MIP_Tolerances_Integrality              0
Tried aggregator 4 times.
MIP Presolve eliminated 81460 rows and 9010 columns.
MIP Presolve modified 69562 coefficients.
Aggregator did 35300 substitutions.
Reduced MIP has 347820 rows, 151650 columns, and 986440 nonzeros.
Reduced MIP has 151650 binaries, 0 generals, 0 SOSs, and 0 indicators.
Presolve time = 4.37 sec. (2352.31 ticks)
Probing fixed 994 vars, tightened 0 bounds.
Probing changed sense of 490 constraints.
Probing time = 5.57 sec. (1186.42 ticks)
Tried aggregator 2 times.
Detecting symmetries...
MIP Presolve eliminated 12674 rows and 6055 columns.
MIP Presolve modified 318 coefficients.
Aggregator did 42 substitutions.
Reduced MIP has 335104 rows, 145553 columns, and 953393 nonzeros.
Reduced MIP has 145553 binaries, 0 generals, 0 SOSs, and 0 indicators.
Presolve time = 4.51 sec. (2543.02 ticks)
Probing fixed 16 vars, tightened 0 bounds.
Probing time = 0.75 sec. (151.45 ticks)
Clique table members: 624205.
MIP emphasis: balance optimality and feasibility.
MIP search method: dynamic search.
Parallel mode: none, using 1 thread.
Root relaxation solution time = 196.54 sec. (48072.98 ticks)

        Nodes                                         Cuts/
   Node  Left     Objective  IInf  Best Integer    Best Bound    ItCnt     Gap

      0     0   223079.8056 90962                 223079.8056   194894         
      0     0   221109.3149 91135               Cliques: 10000   305993         
      0     0   219733.7149 90987                 Cuts: 10000   427401         

Clique cuts applied:  18054
Implied bound cuts applied:  161
Zero-half cuts applied:  4108
Gomory fractional cuts applied:  1

Root node processing (before b&c):
  Real time             = 7200.38 sec. (2273557.82 ticks)
Sequential b&c:
  Real time             =    0.00 sec. (0.00 ticks)
                          ------------
Total (root+branch&cut) = 7200.38 sec. (2273557.82 ticks)
Solution is infeasible.

---------------------
@@@ MIP_time_limit_infeasible
Traceback (most recent call last):
  File "/scratch/scherif/DiverseSAT-journal_sup/DiverseSAT_Supplementary_Experiments/experiment-1/cplex/jobs/../solvers/CPLEX-BIN.py", line 132, in <module>
    print(f">>> Benchmark {os.path.basename(cnf_file)} k {k} OPT {int(prob.solution.get_objective_value())}"
  File "/users/scherif/.local/lib/python3.9/site-packages/cplex/_internal/_subinterfaces.py", line 7211, in get_objective_value
    return CPX_PROC.getobjval(self._env._e, self._cplex._lp)
  File "/users/scherif/.local/lib/python3.9/site-packages/cplex/_internal/_procedural.py", line 2055, in getobjval
    check_status(env, status)
  File "/users/scherif/.local/lib/python3.9/site-packages/cplex/_internal/_procedural.py", line 249, in __call__
    raise CplexSolverError(error_string, env, status)
cplex.exceptions.errors.CplexSolverError: CPLEX Error  1217: No solution exists.
